Running for instance ./models/c104.txt
Generating routes...
Execution time:  2.449039  seconds
Academic license - for non-commercial use only
Warning: constraint name "Cliente esta na rota x1" has a space
Optimize a model with 26 rows, 10000 columns and 79748 nonzeros
Variable types: 0 continuous, 10000 integer (0 binary)
Coefficient statistics:
  Matrix range     [1e+00, 1e+00]
  Objective range  [2e+01, 2e+02]
  Bounds range     [1e+00, 1e+00]
  RHS range        [1e+00, 2e+01]
Found heuristic solution: objective 439.7696491
Presolve removed 1 rows and 2000 columns
Presolve time: 0.07s
Presolved: 25 rows, 8000 columns, 55594 nonzeros
Found heuristic solution: objective 427.9187057
Variable types: 0 continuous, 8000 integer (8000 binary)

Root relaxation: objective 2.309957e+02, 82 iterations, 0.01 seconds

    Nodes    |    Current Node    |     Objective Bounds      |     Work
 Expl Unexpl |  Obj  Depth IntInf | Incumbent    BestBd   Gap | It/Node Time

     0     0  230.99569    0   15  427.91871  230.99569  46.0%     -    0s
H    0     0                     258.4186997  230.99569  10.6%     -    0s
     0     0  230.99569    0   15  258.41870  230.99569  10.6%     -    0s
     0     0  235.92523    0    3  258.41870  235.92523  8.70%     -    0s
H    0     0                     256.5436280  235.92523  8.04%     -    0s
H    0     0                     251.1591313  235.92523  6.07%     -    0s
     0     0  235.92523    0    3  251.15913  235.92523  6.07%     -    0s

Explored 1 nodes (138 simplex iterations) in 0.35 seconds
Thread count was 8 (of 8 available processors)

Solution count 5: 251.159 256.544 258.419 ... 427.919

Optimal solution found (tolerance 1.00e-04)
Best objective 2.511591312655e+02, best bound 2.511591312655e+02, gap 0.0000%

Routes:
8 4
10 11 9 6 7 5 3 1 2
25 23 20 24 22 21
13 15 19 18 17 12 16 14

Distance: 251.159131266
Execution time:  3.707623  seconds
